c Output_time 26.03.2020 18:13:17_+0100 1585242797092519196
c ** Program information **
c program_name                          "QBRG_debug"
c version                               "0.3.20"
c date                                  "25.3.2020"
c gid_id                                "673970833836058123f633335630c185360d632e"
c author                                "Oliver Kullmann"
c url                                   "https://github.com/OKullmann/oklibrary/blob/master/Satisfiability/Transformers/Generators/Random/QBRG.cpp"
c ** Machine information **
c machine_name                          "chyna-Lenovo-G50-70"
c bogomips                              3791.08
c ** Compilation information **
c compiler_version                      "g++ 7.5.0"
c compilation_date                      "Mar_26_2020 11:16:30"
c compilation_options                   "--std=c++17 -pedantic -fmax-errors=5 -Wall -Wextra -g -D_GLIBCXX_DEBUG"
c NDEBUG                                0
c OPTIMIZE                              0
c ** Parameters **
c command-line                          "./QBRG_debug" "e40 a40 40" "361*1,1|2-2,1|3-3,1" "" "1,t" ""
c output                                "QuBlRaGe_120_361_1585242797089999264.qdimacs"
c options                               "filtered,renamed"
c num_quantifier_blocks                 3
c  quantifier_blocks                    1:e1-40 2:a41-80 3:e81-120
c num_clause-blocks                     1
c  clause-blocks                        361 * {1-40,1,1/2} | {41-80,1,1/2} | {81-120,1,1/2}
c num_e-seeds                           30+2=32
c  e-seeds                              1 0 1 0 4 120 2 40 1 40 0 40 1 361 3 1 1 1 1 2 2 2 1 1 2 3 3 1 1 2 1 1585242797089998625
p cnf 120 361
e 1 2 3 4 5 6 7 8 9 10 11 12 13 14 15 16 17 18 19 20 21 22 23 24 25 26 27 28 29 30 31 32 33 34 35 36 37 38 39 40 0
a 41 42 43 44 45 46 47 48 49 50 51 52 53 54 55 56 57 58 59 60 61 62 63 64 65 66 67 68 69 70 71 72 73 74 75 76 77 78 79 80 0
e 81 82 83 84 85 86 87 88 89 90 91 92 93 94 95 96 97 98 99 100 101 102 103 104 105 106 107 108 109 110 111 112 113 114 115 116 117 118 119 120 0
22 -58 -81 0
32 -59 -81 0
18 63 -81 0
-35 -64 -81 0
4 -70 -81 0
26 -56 81 0
38 62 81 0
-4 63 81 0
-9 76 81 0
8 42 -82 0
21 -64 -82 0
-36 -44 82 0
3 -45 82 0
1 51 82 0
-10 -64 82 0
-10 71 82 0
-38 -75 82 0
18 -42 -83 0
4 -49 -83 0
31 68 -83 0
-17 -69 83 0
25 -73 83 0
-22 -50 -84 0
-22 60 -84 0
-30 62 -84 0
-39 -63 -84 0
-35 64 -84 0
21 -42 84 0
-27 45 84 0
-21 46 84 0
14 78 84 0
-32 -51 -85 0
-25 54 -85 0
36 -59 -85 0
-25 66 -85 0
-4 53 85 0
14 56 85 0
35 -54 -86 0
-29 68 -86 0
24 -71 -86 0
-29 44 86 0
6 -53 86 0
-21 66 86 0
9 -71 86 0
33 -48 -87 0
30 48 -87 0
-40 48 -87 0
-30 -50 -87 0
33 51 -87 0
-31 52 -87 0
31 52 -87 0
38 53 -87 0
33 54 -87 0
40 54 -87 0
-36 -55 -87 0
-1 43 87 0
-19 -50 -88 0
26 60 -88 0
-31 63 -88 0
13 -65 -88 0
-23 77 -88 0
-24 47 88 0
26 -56 88 0
-30 -66 88 0
31 69 88 0
11 -73 88 0
-5 43 -89 0
-28 52 -89 0
-30 70 -89 0
30 -41 89 0
-26 46 89 0
35 49 89 0
2 54 89 0
28 69 89 0
-7 -46 -90 0
11 49 -90 0
-12 50 -90 0
38 -52 -90 0
-25 -54 -90 0
-23 -69 -90 0
11 -70 -90 0
-21 -75 -90 0
-36 -80 -90 0
24 45 90 0
40 -49 90 0
-28 60 90 0
19 61 90 0
-13 -67 90 0
12 -76 90 0
29 79 90 0
11 43 -91 0
-24 -44 -91 0
15 48 -91 0
-9 -66 -91 0
36 -61 91 0
-15 68 91 0
-4 -70 91 0
-36 -47 92 0
-2 55 92 0
7 -68 92 0
21 -57 -93 0
-32 62 -93 0
22 -63 -93 0
-36 -78 -93 0
10 -80 -93 0
12 -47 93 0
11 51 93 0
-25 55 93 0
-21 -58 93 0
-37 62 93 0
35 -64 93 0
-36 70 93 0
40 -58 -94 0
24 76 -94 0
2 63 94 0
-28 69 94 0
29 -74 94 0
5 42 -95 0
34 67 -95 0
11 71 -95 0
17 -80 -95 0
20 -41 95 0
-26 -46 95 0
-20 -59 95 0
17 60 95 0
-19 -63 95 0
-11 -68 95 0
-21 74 95 0
-23 42 -96 0
-2 -44 -96 0
-39 64 -96 0
35 -68 -96 0
23 76 -96 0
-35 48 96 0
-33 -61 96 0
-5 -66 96 0
-32 -44 -97 0
-13 48 -97 0
-7 61 -97 0
11 -76 -97 0
20 45 97 0
22 -46 97 0
-30 -77 97 0
-31 45 -98 0
-23 -56 -98 0
-6 -59 -98 0
-19 63 -98 0
8 -68 -98 0
7 44 98 0
-5 -63 98 0
16 65 98 0
-1 -66 98 0
-16 -73 98 0
14 77 98 0
-8 -50 -99 0
10 -74 -99 0
-16 75 -99 0
8 53 99 0
12 -54 99 0
33 -66 99 0
-38 -68 99 0
11 -42 -100 0
33 -49 -100 0
23 -72 -100 0
-33 78 -100 0
-26 48 100 0
-25 -57 100 0
-12 63 100 0
36 67 100 0
-22 -49 -101 0
-24 -54 -101 0
-10 69 -101 0
-35 -74 -101 0
13 75 -101 0
15 -41 101 0
-18 -42 101 0
9 -50 101 0
-32 50 101 0
-7 74 101 0
14 75 101 0
40 -41 102 0
-7 43 102 0
-4 44 102 0
35 50 102 0
27 -53 102 0
28 59 102 0
40 71 102 0
14 -75 102 0
33 -48 -103 0
12 -59 -103 0
-35 41 103 0
-36 51 103 0
26 73 103 0
-15 -57 -104 0
-6 62 -104 0
2 -75 104 0
30 -79 104 0
-11 44 -105 0
20 47 -105 0
8 -75 -105 0
16 41 105 0
23 -46 105 0
-40 49 105 0
29 62 105 0
35 68 105 0
24 75 105 0
-19 -78 105 0
-13 80 105 0
40 43 -106 0
37 44 -106 0
39 55 -106 0
-34 -56 -106 0
-25 -64 -106 0
-25 71 -106 0
-38 50 106 0
-28 52 106 0
-9 56 106 0
1 -79 106 0
-3 -41 -107 0
-5 45 -107 0
10 45 -107 0
7 50 -107 0
25 53 -107 0
-2 -61 -107 0
10 -73 -107 0
-4 -43 107 0
36 -67 107 0
-32 72 107 0
40 72 107 0
39 52 -108 0
36 59 -108 0
-33 60 -108 0
-11 -67 -108 0
32 73 -108 0
-12 -74 -108 0
29 74 -108 0
-18 80 -108 0
30 -58 108 0
-17 64 108 0
39 -72 108 0
-5 79 108 0
29 45 -109 0
-30 51 109 0
-22 64 109 0
15 70 109 0
-10 73 109 0
14 -52 -110 0
-39 52 -110 0
-12 -62 -110 0
6 -65 -110 0
-1 -70 -110 0
14 74 -110 0
-5 -77 -110 0
-17 -47 110 0
-8 54 110 0
1 54 -111 0
-22 59 -111 0
19 65 -111 0
27 -71 -111 0
21 -72 -111 0
-13 52 111 0
18 74 111 0
-8 78 111 0
-7 -79 111 0
5 72 -112 0
-38 73 -112 0
-19 -79 -112 0
-38 80 -112 0
-7 42 112 0
11 -52 112 0
31 -73 112 0
-3 76 112 0
8 -80 112 0
-38 45 -113 0
-29 48 -113 0
6 49 -113 0
16 -53 -113 0
-39 61 -113 0
-21 -66 -113 0
22 -68 -113 0
29 74 -113 0
15 42 113 0
-28 42 113 0
9 -45 113 0
-17 51 113 0
-37 -53 113 0
-21 -65 113 0
27 -72 113 0
-8 48 -114 0
10 -51 -114 0
-29 53 -114 0
-9 75 -114 0
9 -51 114 0
24 -53 114 0
10 63 114 0
37 -64 114 0
20 -67 114 0
30 -67 114 0
7 43 -115 0
-11 -49 -115 0
-34 55 -115 0
18 58 -115 0
16 -59 -115 0
7 60 -115 0
16 63 -115 0
21 65 -115 0
-15 53 115 0
21 57 115 0
-10 -59 115 0
33 -79 115 0
17 -52 -116 0
30 -56 -116 0
26 63 -116 0
-15 76 -116 0
-22 78 -116 0
-38 -50 116 0
30 -56 116 0
-18 68 116 0
34 43 -117 0
29 -53 -117 0
30 -56 -117 0
-30 65 -117 0
-13 -73 -117 0
-39 -78 -117 0
-23 -49 117 0
14 -56 117 0
19 61 117 0
11 -62 117 0
-26 67 117 0
-38 -73 117 0
21 -74 117 0
-5 43 -118 0
-16 46 -118 0
-19 54 -118 0
25 57 -118 0
-20 -58 -118 0
21 -69 -118 0
7 80 -118 0
-37 -42 118 0
-34 -54 118 0
-23 60 118 0
6 -73 118 0
-40 -77 118 0
11 57 -119 0
12 46 119 0
-26 60 119 0
-38 60 119 0
20 45 -120 0
32 48 -120 0
16 59 -120 0
-9 -65 -120 0
-7 80 -120 0
-38 -45 120 0
-15 -56 120 0
-13 -57 120 0
21 59 120 0
35 62 120 0
19 -63 120 0
-1 65 120 0
26 77 120 0
12 -79 120 0
